Read MPS format model from file dat/rmp/4node-base_1024_20.mps
Reading time = 0.08 seconds
: 1084 rows, 5256 columns, 187574 nonzeros
Gurobi Optimizer version 9.0.0 build v9.0.0rc2 (linux64)
Optimize a model with 1084 rows, 5256 columns and 187574 nonzeros
Model fingerprint: 0x0efbdaa3
Coefficient statistics:
  Matrix range     [6e-03, 2e+01]
  Objective range  [7e-02, 1e+04]
  Bounds range     [0e+00, 0e+00]
  RHS range        [1e+00, 8e+01]
Ordering time: 0.00s

Barrier statistics:
 AA' NZ     : 5.379e+04
 Factor NZ  : 6.696e+04 (roughly 3 MBytes of memory)
 Factor Ops : 4.339e+06 (less than 1 second per iteration)
 Threads    : 1

                  Objective                Residual
Iter       Primal          Dual         Primal    Dual     Compl     Time
   0   1.93243435e+07  0.00000000e+00  4.49e+02 2.40e+02  5.24e+04     0s
   1   6.28803481e+05 -6.67825355e+06  1.35e+01 9.76e+02  2.99e+03     0s
   2   7.23783081e+03 -2.59912041e+06  1.00e-02 1.51e+01  5.01e+02     0s
   3   1.73623290e+03 -4.93227948e+05  2.14e-03 2.37e+00  9.50e+01     0s
   4  -1.41401941e+02 -6.10576974e+04  8.62e-06 2.91e-01  1.17e+01     0s
   5  -2.83426059e+02 -2.20464729e+03  7.57e-07 7.08e-03  3.68e-01     0s
   6  -3.23871691e+02 -7.07007009e+02  2.07e-07 1.04e-03  7.32e-02     0s
   7  -3.45235075e+02 -4.80914111e+02  1.18e-07 7.09e-05  2.59e-02     0s
   8  -3.83952475e+02 -4.41100098e+02  2.52e-08 2.06e-05  1.09e-02     0s
   9  -3.94887544e+02 -4.25274631e+02  1.48e-08 5.20e-06  5.79e-03     0s
  10  -4.02988131e+02 -4.22052868e+02  1.80e-08 1.58e-06  3.63e-03     0s
  11  -4.12504609e+02 -4.17137488e+02  7.39e-08 1.75e-07  8.82e-04     0s
  12  -4.13688272e+02 -4.16297126e+02  3.64e-07 6.29e-08  4.97e-04     0s
  13  -4.15457356e+02 -4.15773764e+02  5.57e-07 1.91e-09  6.02e-05     0s
  14  -4.15608413e+02 -4.15688809e+02  1.36e-07 2.49e-10  1.53e-05     0s
  15  -4.15647544e+02 -4.15667682e+02  9.89e-08 3.24e-11  3.83e-06     0s
  16  -4.15648486e+02 -4.15664315e+02  5.13e-07 1.46e-11  3.01e-06     0s
  17  -4.15659971e+02 -4.15663301e+02  8.04e-08 1.46e-11  6.34e-07     0s
  18  -4.15659965e+02 -4.15662858e+02  3.68e-07 1.46e-11  5.49e-07     0s
  19  -4.15659966e+02 -4.15662859e+02  5.95e-07 1.46e-11  5.49e-07     0s
  20  -4.15660013e+02 -4.15662367e+02  8.02e-07 1.46e-11  4.48e-07     0s
  21  -4.15660107e+02 -4.15662195e+02  8.14e-07 1.46e-11  3.94e-07     0s
  22  -4.15662023e+02 -4.15662192e+02  6.44e-08 1.46e-11  3.20e-08     0s
  23  -4.15662165e+02 -4.15662168e+02  1.74e-09 2.91e-11  4.54e-10     0s

Barrier solved model in 23 iterations and 0.31 seconds
Optimal objective -4.15662165e+02

Solve time: 0.310954297
Barrier iterations: 23
